3 
4  40 59 
5  09 17 25 33 40 47 54 
6  01 09 19 27 34 42 49 57 
7  04 12 19 27 34 42 49 57 
8  04 12 19 27 34 42 49 57 
9  04 12 19 27 34 42 49 57 
10  04 12 19 27 34 42 49 57 
11  04 12 19 27 34 42 49 57 
12  04 12 19 27 34 42 49 57 
13  04 12 19 27 34 42 49 57 
14  04 12 19 27 34 42 49 57 
15  04 12 19 27 34 42 49 57 
16  04 12 19 27 34 42 49 57 
17  04 12 19 27 34 42 49 57 
18  04 12 19 27 34 42 49 57 
19  04 12 19 27 36 51 
20  06 21 34 49 
21  04 19 34 49 
22  04 19 34 51 
23 
